p tw 1024 1797
1 915
1 916
2 563
2 564
3 684
3 685
4 518
4 519
5 578
5 579
5 831
5 832
6 762
6 763
7 867
7 868
8 526
8 527
9 824
9 825
10 565
10 566
11 779
11 780
12 511
12 512
12 646
12 647
13 465
13 466
13 941
13 942
14 474
14 475
14 844
14 845
15 652
15 653
16 438
16 439
16 776
16 777
16 904
16 905
17 445
17 446
17 791
17 792
17 909
17 910
18 929
18 930
19 451
19 452
19 544
19 545
19 677
19 678
20 498
20 499
20 535
20 536
21 490
21 491
22 569
22 570
23 588
23 589
24 596
24 597
24 950
24 951
25 845
25 846
26 699
26 700
27 530
27 531
27 819
27 820
27 846
27 847
28 479
28 480
28 972
28 973
29 584
29 585
30 895
30 896
31 472
31 473
31 859
31 860
32 670
32 671
33 1007
33 1008
34 282
34 508
35 827
35 828
36 682
36 683
37 935
37 936
38 784
38 785
39 401
39 506
39 507
39 549
39 834
39 835
40 740
40 741
41 586
41 587
41 689
41 690
41 943
41 944
42 614
42 615
42 718
42 719
42 866
42 867
43 434
43 435
43 631
43 632
43 663
43 664
44 523
44 524
45 531
45 532
46 842
46 843
47 662
47 663
48 741
48 742
49 55
49 328
49 653
49 1009
50 988
50 989
51 715
51 716
51 864
51 865
52 572
52 573
53 768
53 769
54 906
54 907
55 1009
56 865
56 866
57 752
57 753
57 889
57 890
58 604
58 605
59 329
59 460
60 556
60 557
61 513
61 514
62 441
62 442
62 749
62 750
63 496
63 497
64 539
64 540
65 735
65 736
66 716
66 717
67 574
67 575
68 669
68 670
69 833
69 834
69 911
69 912
70 477
70 478
71 965
71 966
72 571
72 572
73 594
73 595
74 432
74 433
74 630
74 631
74 697
74 698
75 436
75 437
75 483
75 484
75 525
75 526
75 633
75 634
75 703
75 704
75 817
75 818
75 1005
75 1006
76 793
76 794
76 997
76 998
77 769
77 770
78 766
78 767
79 603
79 604
80 193
80 457
80 458
80 505
80 506
80 548
80 549
80 641
80 801
80 802
80 835
80 836
80 912
80 913
80 1006
80 1007
81 638
81 639
81 848
81 849
82 487
82 488
83 558
83 559
84 534
84 535
84 825
84 826
84 996
84 997
85 609
85 610
85 958
85 959
86 599
86 600
87 849
87 850
88 1008
88 1009
89 679
89 680
90 843
90 844
91 744
91 745
92 761
92 762
93 799
93 800
94 973
94 974
95 164
95 619
95 916
95 917
96 583
96 584
96 939
96 940
97 464
97 465
97 942
97 943
98 611
98 612
99 656
99 657
99 839
99 840
100 543
100 544
101 739
101 740
102 948
102 949
103 1012
103 1013
104 649
104 650
105 342
105 581
105 582
105 1024
106 772
106 773
107 561
107 562
107 927
107 928
108 570
108 571
109 629
109 630
109 1010
109 1011
110 753
110 754
111 1000
111 1001
112 894
112 895
113 128
113 475
113 937
113 938
114 497
114 498
114 647
114 648
114 790
114 791
115 736
115 737
116 964
116 965
117 731
117 732
118 951
118 952
119 960
119 961
120 806
120 807
121 589
121 590
122 590
122 591
122 626
122 627
122 1019
122 1020
123 804
123 805
124 836
124 837
125 759
125 760
125 980
125 981
126 878
126 879
127 778
127 779
128 475
128 528
128 529
128 708
128 709
128 953
128 954
129 795
129 796
130 850
130 851
131 1017
131 1018
132 602
132 603
132 781
132 782
133 830
133 831
133 961
133 962
134 443
134 444
134 930
134 931
134 1016
134 1017
135 471
135 472
135 974
135 975
136 489
136 490
137 756
137 757
138 527
138 528
138 818
138 819
138 995
138 996
139 821
139 822
140 901
140 902
141 515
141 516
142 707
142 708
143 579
143 580
144 723
144 724
145 509
145 510
146 660
146 661
147 292
147 643
147 977
147 978
148 470
148 471
148 934
148 935
149 560
149 561
149 743
149 744
150 886
150 887
151 564
151 565
151 975
151 976
152 627
152 628
153 466
153 467
153 863
153 864
154 676
154 677
155 538
155 539
155 826
155 827
156 922
156 923
157 648
157 649
158 600
158 601
158 706
158 707
159 499
159 500
160 553
160 554
160 971
160 972
161 616
161 617
161 724
161 725
161 968
161 969
162 598
162 599
163 484
163 485
164 321
164 619
164 807
164 917
164 918
165 615
165 616
165 719
165 720
165 963
165 964
166 959
166 960
167 430
167 431
167 622
167 623
167 765
167 766
168 428
168 429
168 658
168 659
169 450
169 451
169 798
169 799
170 597
170 598
170 991
170 992
171 758
171 759
172 685
172 686
173 1003
173 1004
174 728
174 729
175 770
175 771
176 459
176 460
176 803
176 804
177 601
177 602
177 780
177 781
178 448
178 449
179 976
179 977
180 455
180 456
180 504
180 505
180 800
180 801
181 580
181 581
182 729
182 730
182 874
182 875
183 612
183 613
183 998
183 999
184 467
184 468
184 924
184 925
185 503
185 504
185 545
185 546
185 832
185 833
185 893
185 894
186 822
186 823
187 424
187 837
188 674
188 675
188 933
188 934
189 925
189 926
190 748
190 749
191 437
191 438
192 989
192 990
193 458
193 459
193 641
193 681
193 682
194 899
194 900
195 675
195 676
196 742
196 743
197 482
197 483
197 524
197 525
197 816
197 817
198 468
198 469
198 879
198 880
199 763
199 764
200 919
200 920
201 888
201 889
202 785
202 786
203 871
203 872
204 918
204 919
205 990
205 991
205 1020
205 1021
206 608
206 609
206 956
206 957
206 1014
206 1015
207 949
207 950
208 447
208 448
209 730
209 731
210 623
210 624
210 692
210 693
211 617
211 618
212 664
212 665
213 805
213 806
214 440
214 441
214 562
214 563
214 745
214 746
215 792
215 793
216 521
216 522
217 808
217 809
218 704
218 705
219 688
219 689
220 1021
220 1022
221 750
221 751
222 495
222 496
223 478
223 479
224 851
224 852
225 938
225 939
226 714
226 715
227 970
227 971
228 881
228 882
229 982
229 983
230 691
230 692
230 853
230 854
231 882
231 883
232 687
232 688
233 838
233 839
234 764
234 765
235 645
235 646
236 777
236 778
236 992
236 993
237 607
237 608
237 955
237 956
238 522
238 523
239 686
239 687
240 885
240 886
241 767
241 768
242 787
242 788
243 442
243 443
243 491
243 492
243 644
243 645
243 712
243 713
243 861
243 862
244 1018
244 1019
245 725
245 726
245 870
245 871
246 427
246 428
246 510
246 511
246 1002
246 1003
247 435
247 436
248 880
248 881
249 587
249 588
250 620
250 621
251 433
251 434
251 480
251 481
251 737
251 738
252 665
252 666
253 952
253 953
254 452
254 453
254 757
254 758
255 605
255 606
256 902
256 903
257 926
257 927
258 841
258 842
259 554
259 555
260 666
260 667
260 928
260 929
261 529
261 530
261 711
261 712
262 481
262 482
263 854
263 855
264 566
264 567
265 476
265 477
266 809
266 810
267 575
267 576
268 672
268 673
269 693
269 694
270 890
270 891
271 855
271 856
272 637
272 638
272 789
272 790
273 840
273 841
274 634
274 635
275 668
275 669
276 858
276 859
277 426
277 427
278 721
278 722
279 485
279 486
280 914
280 915
281 993
281 994
282 508
283 552
283 553
284 747
284 748
284 883
284 884
285 678
285 679
286 568
286 569
287 920
287 921
288 559
288 560
289 705
289 706
290 624
290 625
291 796
291 797
291 910
291 911
292 454
292 455
292 643
293 429
293 430
293 690
293 691
293 944
293 945
294 463
294 464
294 940
294 941
295 860
295 861
296 862
296 863
297 797
297 798
298 983
298 984
299 815
299 816
300 456
300 457
300 547
300 548
300 640
300 641
300 680
300 681
300 936
300 937
301 788
301 789
302 720
302 721
302 966
302 967
303 577
303 578
304 613
304 614
305 755
305 756
305 892
305 893
306 557
306 558
307 519
307 520
307 812
307 813
307 877
307 878
308 494
308 495
309 710
309 711
310 632
310 633
311 567
311 568
311 884
311 885
312 625
312 626
313 502
313 503
314 897
314 898
315 1013
315 1014
316 404
316 635
316 636
316 1011
317 701
317 702
318 444
318 445
318 636
318 637
318 786
318 787
319 783
319 784
320 593
320 594
320 771
320 772
320 900
320 901
321 331
321 807
321 1001
322 987
322 988
323 667
323 668
323 931
323 932
324 754
324 755
325 868
325 869
326 492
326 493
326 532
326 533
326 820
326 821
327 746
327 747
328 653
329 460
330 732
330 733
330 875
330 876
331 1001
332 847
332 848
333 501
333 502
333 541
333 542
334 453
334 454
335 610
335 611
335 908
335 909
336 650
336 651
336 829
336 830
337 738
337 739
338 550
338 551
338 657
338 658
338 921
338 922
339 618
339 619
339 726
339 727
340 591
340 592
340 945
340 946
341 856
341 857
342 1024
343 702
343 703
344 606
344 607
345 639
345 640
346 713
346 714
346 823
346 824
347 751
347 752
347 887
347 888
348 431
348 432
348 628
348 629
349 446
349 447
349 500
349 501
349 794
349 795
350 642
350 643
351 946
351 947
352 984
352 985
353 542
353 543
354 727
354 728
354 873
354 874
355 722
355 723
356 695
356 696
357 978
357 979
358 536
358 537
359 488
359 489
360 512
360 513
361 514
361 515
361 810
361 811
361 969
361 970
362 439
362 440
363 683
363 684
364 872
364 873
365 986
365 987
366 694
366 695
367 734
367 735
368 717
368 718
369 520
369 521
369 813
369 814
370 461
370 462
370 905
370 906
371 774
371 775
372 585
372 586
372 898
372 899
373 876
373 877
374 469
374 470
374 967
374 968
375 540
375 541
375 828
375 829
375 999
375 1000
376 709
376 710
377 537
377 538
378 493
378 494
379 582
379 583
379 896
379 897
380 621
380 622
381 573
381 574
381 979
381 980
382 954
382 955
383 486
383 487
384 932
384 933
385 981
385 982
385 1022
385 1023
386 985
386 986
387 507
387 508
388 957
388 958
389 802
389 803
389 913
389 914
390 651
390 652
390 773
390 774
390 1004
390 1005
391 923
391 924
392 546
392 547
393 516
393 517
393 811
393 812
394 576
394 577
395 814
395 815
396 517
396 518
397 655
397 656
398 994
398 995
399 1015
399 1016
400 654
400 655
401 549
402 698
402 699
402 947
402 948
403 533
403 534
404 473
404 474
404 903
404 904
404 1011
405 907
405 908
406 673
406 674
407 449
407 450
408 782
408 783
409 555
409 556
410 760
410 761
411 661
411 662
412 891
412 892
413 595
413 596
413 700
413 701
413 857
413 858
414 962
414 963
415 775
415 776
416 551
416 552
417 696
417 697
418 671
418 672
419 462
419 463
420 852
420 853
421 733
421 734
422 869
422 870
422 1023
422 1024
423 592
423 593
424 837
425 659
425 660
426 427
427 428
428 429
429 430
430 431
431 432
432 433
433 434
434 435
435 436
436 437
437 438
438 439
439 440
440 441
441 442
442 443
443 444
444 445
445 446
446 447
447 448
448 449
449 450
450 451
451 452
452 453
453 454
454 455
455 456
456 457
457 458
458 459
459 460
461 462
462 463
463 464
464 465
465 466
466 467
467 468
468 469
469 470
470 471
471 472
472 473
473 474
474 475
476 477
477 478
478 479
479 480
480 481
481 482
482 483
483 484
484 485
485 486
486 487
487 488
488 489
489 490
490 491
491 492
492 493
493 494
494 495
495 496
496 497
497 498
498 499
499 500
500 501
501 502
502 503
503 504
504 505
505 506
506 507
507 508
509 510
510 511
511 512
512 513
513 514
514 515
515 516
516 517
517 518
518 519
519 520
520 521
521 522
522 523
523 524
524 525
525 526
526 527
527 528
528 529
529 530
530 531
531 532
532 533
533 534
534 535
535 536
536 537
537 538
538 539
539 540
540 541
541 542
542 543
543 544
544 545
545 546
546 547
547 548
548 549
550 551
551 552
552 553
553 554
554 555
555 556
556 557
557 558
558 559
559 560
560 561
561 562
562 563
563 564
564 565
565 566
566 567
567 568
568 569
569 570
570 571
571 572
572 573
573 574
574 575
575 576
576 577
577 578
578 579
579 580
580 581
581 582
582 583
583 584
584 585
585 586
586 587
587 588
588 589
589 590
590 591
591 592
592 593
593 594
594 595
595 596
596 597
597 598
598 599
599 600
600 601
601 602
602 603
603 604
604 605
605 606
606 607
607 608
608 609
609 610
610 611
611 612
612 613
613 614
614 615
615 616
616 617
617 618
618 619
620 621
621 622
622 623
623 624
624 625
625 626
626 627
627 628
628 629
629 630
630 631
631 632
632 633
633 634
634 635
635 636
636 637
637 638
638 639
639 640
640 641
642 643
644 645
645 646
646 647
647 648
648 649
649 650
650 651
651 652
652 653
654 655
655 656
656 657
657 658
658 659
659 660
660 661
661 662
662 663
663 664
664 665
665 666
666 667
667 668
668 669
669 670
670 671
671 672
672 673
673 674
674 675
675 676
676 677
677 678
678 679
679 680
680 681
681 682
682 683
683 684
684 685
685 686
686 687
687 688
688 689
689 690
690 691
691 692
692 693
693 694
694 695
695 696
696 697
697 698
698 699
699 700
700 701
701 702
702 703
703 704
704 705
705 706
706 707
707 708
708 709
709 710
710 711
711 712
712 713
713 714
714 715
715 716
716 717
717 718
718 719
719 720
720 721
721 722
722 723
723 724
724 725
725 726
726 727
727 728
728 729
729 730
730 731
731 732
732 733
733 734
734 735
735 736
736 737
737 738
738 739
739 740
740 741
741 742
742 743
743 744
744 745
745 746
746 747
747 748
748 749
749 750
750 751
751 752
752 753
753 754
754 755
755 756
756 757
757 758
758 759
759 760
760 761
761 762
762 763
763 764
764 765
765 766
766 767
767 768
768 769
769 770
770 771
771 772
772 773
773 774
774 775
775 776
776 777
777 778
778 779
779 780
780 781
781 782
782 783
783 784
784 785
785 786
786 787
787 788
788 789
789 790
790 791
791 792
792 793
793 794
794 795
795 796
796 797
797 798
798 799
799 800
800 801
801 802
802 803
803 804
804 805
805 806
806 807
808 809
809 810
810 811
811 812
812 813
813 814
814 815
815 816
816 817
817 818
818 819
819 820
820 821
821 822
822 823
823 824
824 825
825 826
826 827
827 828
828 829
829 830
830 831
831 832
832 833
833 834
834 835
835 836
836 837
838 839
839 840
840 841
841 842
842 843
843 844
844 845
845 846
846 847
847 848
848 849
849 850
850 851
851 852
852 853
853 854
854 855
855 856
856 857
857 858
858 859
859 860
860 861
861 862
862 863
863 864
864 865
865 866
866 867
867 868
868 869
869 870
870 871
871 872
872 873
873 874
874 875
875 876
876 877
877 878
878 879
879 880
880 881
881 882
882 883
883 884
884 885
885 886
886 887
887 888
888 889
889 890
890 891
891 892
892 893
893 894
894 895
895 896
896 897
897 898
898 899
899 900
900 901
901 902
902 903
903 904
904 905
905 906
906 907
907 908
908 909
909 910
910 911
911 912
912 913
913 914
914 915
915 916
916 917
917 918
918 919
919 920
920 921
921 922
922 923
923 924
924 925
925 926
926 927
927 928
928 929
929 930
930 931
931 932
932 933
933 934
934 935
935 936
936 937
937 938
938 939
939 940
940 941
941 942
942 943
943 944
944 945
945 946
946 947
947 948
948 949
949 950
950 951
951 952
952 953
953 954
954 955
955 956
956 957
957 958
958 959
959 960
960 961
961 962
962 963
963 964
964 965
965 966
966 967
967 968
968 969
969 970
970 971
971 972
972 973
973 974
974 975
975 976
976 977
977 978
978 979
979 980
980 981
981 982
982 983
983 984
984 985
985 986
986 987
987 988
988 989
989 990
990 991
991 992
992 993
993 994
994 995
995 996
996 997
997 998
998 999
999 1000
1000 1001
1002 1003
1003 1004
1004 1005
1005 1006
1006 1007
1007 1008
1008 1009
1010 1011
1012 1013
1013 1014
1014 1015
1015 1016
1016 1017
1017 1018
1018 1019
1019 1020
1020 1021
1021 1022
1022 1023
1023 1024
